n_res = 4;
rcap = [14, 11, 60, 73];
rtype = [1, 1, 2, 2];
n_tasks = 12;
modes = [ {1, 2, 3}, {4, 5, 6}, {7, 8, 9}, {10, 11, 12}, {13, 14, 15}, {16, 17, 18}, {19, 20, 21}, {22, 23, 24}, {25, 26, 27}, {28, 29, 30}, {31, 32, 33}, {34, 35, 36} ];
succ = [ {8, 9, 11}, {4, 5, 7}, {6, 8, 9}, {10}, {8, 9, 11}, {7, 12}, {11}, {10, 12}, {10, 12}, {}, {}, {} ];
n_opt = 36;
dur = [3, 4, 6, 3, 5, 7, 2, 7, 10, 6, 8, 9, 2, 7, 10, 2, 9, 9, 8, 8, 9, 4, 5, 10, 1, 1, 6, 3, 6, 7, 5, 6, 9, 5, 7, 10];
rreq = [|  0,  0,  0,  0,  5,  4,  0,  0, 10,  6,  6,  0, 10,  9,  9,  8,  0,  7,  0,  4,  2,  7,  7,  0,  6,  0,  0,  0,  0,  0,  3,  0,  0,  5,  5,  3
        |  6,  5,  5,  3,  0,  0,  8,  6,  0,  0,  0,  4,  0,  0,  0,  0,  7,  0,  5,  0,  0,  0,  0,  4,  0, 10,  8,  8,  7,  6,  0,  2,  2,  0,  0,  0
        |  4,  3,  3,  5,  2,  1,  4,  4,  2,  6,  4,  3,  7,  3,  2,  4,  3,  3,  4,  4,  4, 10,  9,  9, 10,  6,  3,  7,  6,  6,  5,  4,  4,  9,  8,  5
        |  5,  4,  1,  9,  9,  9,  7,  6,  4, 10,  9,  8,  9,  9,  9,  8,  7,  7,  4,  6,  2,  4,  4,  3,  6,  8,  6,  9,  9,  9,  3,  3,  1,  6,  4,  3 |];
